NAME 
ROWS
 N  OBJ
 L  R0      
 L  R1      
 L  R2      
 E  R3      
 E  R4      
 E  R5      
 E  R6      
 E  R7      
 E  R8      
 E  R9      
 E  R10     
 E  R11     
 E  R12     
 E  R13     
 E  R14     
 E  R15     
 E  R16     
 E  R17     
 E  R18     
 E  R19     
 E  R20     
 E  R21     
 E  R22     
COLUMNS
    MARKER    'MARKER'                 'INTORG'
    I0(10)    OBJ       -44
    I0(10)    R0        -199
    I0(10)    R1        -61
    I0(10)    R2        51
    I0(10)    R5        13
    I0(10)    R6        7
    I0(10)    R8        6
    I0(10)    R9        15
    I0(10)    R11       15
    I0(10)    R12       6
    I0(10)    R22       1
    I1(7)     OBJ       -195
    I1(7)     R0        -49
    I1(7)     R1        127
    I1(7)     R2        -143
    I1(7)     R4        8
    I1(7)     R5        7
    I1(7)     R10       4
    I1(7)     R22       1
    I2(9)     OBJ       98
    I2(9)     R0        -73
    I2(9)     R1        11
    I2(9)     R2        176
    I2(9)     R3        3
    I2(9)     R4        15
    I2(9)     R5        19
    I2(9)     R8        19
    I2(9)     R10       1
    I2(9)     R22       1
    I3(11)    OBJ       -92
    I3(11)    R0        -67
    I3(11)    R1        -153
    I3(11)    R2        -171
    I3(11)    R3        4
    I3(11)    R5        3
    I3(11)    R7        1
    I3(11)    R8        13
    I3(11)    R9        19
    I3(11)    R10       12
    I3(11)    R11       10
    I3(11)    R22       1
    I4(12)    OBJ       -143
    I4(12)    R0        -80
    I4(12)    R1        -98
    I4(12)    R2        122
    I4(12)    R3        13
    I4(12)    R5        18
    I4(12)    R6        -1
    I4(12)    R7        8
    I4(12)    R8        5
    I4(12)    R9        16
    I4(12)    R10       16
    I4(12)    R11       5
    I4(12)    R22       1
    I5(11)    OBJ       20
    I5(11)    R0        159
    I5(11)    R1        -18
    I5(11)    R2        -45
    I5(11)    R3        7
    I5(11)    R4        16
    I5(11)    R5        11
    I5(11)    R8        1
    I5(11)    R9        16
    I5(11)    R10       14
    I5(11)    R11       -1
    I5(11)    R22       1
    I6(8)     OBJ       -65
    I6(8)     R0        -143
    I6(8)     R1        -17
    I6(8)     R2        -6
    I6(8)     R3        16
    I6(8)     R4        7
    I6(8)     R6        14
    I6(8)     R7        14
    I6(8)     R22       1
    I7(8)     OBJ       -117
    I7(8)     R0        -97
    I7(8)     R1        3
    I7(8)     R2        -94
    I7(8)     R5        10
    I7(8)     R8        2
    I7(8)     R9        11
    I7(8)     R11       1
    I7(8)     R22       1
    I8(8)     OBJ       61
    I8(8)     R0        -62
    I8(8)     R1        -70
    I8(8)     R2        70
    I8(8)     R4        -1
    I8(8)     R7        6
    I8(8)     R8        3
    I8(8)     R9        6
    I8(8)     R22       1
    I9(7)     OBJ       191
    I9(7)     R0        -130
    I9(7)     R1        168
    I9(7)     R2        -183
    I9(7)     R4        -1
    I9(7)     R7        7
    I9(7)     R11       9
    I9(7)     R22       1
    MARKER    'MARKER'                 'INTEND'
    C10(11)   OBJ       -9
    C10(11)   R0        -6
    C10(11)   R1        6
    C10(11)   R2        6
    C10(11)   R5        9
    C10(11)   R7        19
    C10(11)   R8        16
    C10(11)   R9        17
    C10(11)   R14       13
    C10(11)   R16       16
    C10(11)   R18       14
    C10(11)   R21       10
    C11(12)   OBJ       3
    C11(12)   R0        -1
    C11(12)   R1        -3
    C11(12)   R2        -9
    C11(12)   R3        4
    C11(12)   R4        19
    C11(12)   R8        3
    C11(12)   R9        2
    C11(12)   R10       16
    C11(12)   R11       14
    C11(12)   R12       15
    C11(12)   R18       8
    C11(12)   R19       7
    C12(15)   OBJ       -9
    C12(15)   R0        -9
    C12(15)   R1        -2
    C12(15)   R2        -5
    C12(15)   R5        17
    C12(15)   R8        17
    C12(15)   R9        19
    C12(15)   R10       12
    C12(15)   R11       9
    C12(15)   R12       3
    C12(15)   R13       18
    C12(15)   R14       14
    C12(15)   R15       1
    C12(15)   R18       14
    C12(15)   R20       16
    C12(15)   R21       12
    C13(10)   OBJ       4
    C13(10)   R0        -10
    C13(10)   R1        -6
    C13(10)   R2        -10
    C13(10)   R6        9
    C13(10)   R10       1
    C13(10)   R11       12
    C13(10)   R12       8
    C13(10)   R13       5
    C13(10)   R14       10
    C13(10)   R18       13
    C14(14)   OBJ       3
    C14(14)   R0        -10
    C14(14)   R1        2
    C14(14)   R2        1
    C14(14)   R3        3
    C14(14)   R8        14
    C14(14)   R10       9
    C14(14)   R11       18
    C14(14)   R12       13
    C14(14)   R15       3
    C14(14)   R16       3
    C14(14)   R17       19
    C14(14)   R18       7
    C14(14)   R20       15
    C14(14)   R21       16
    C15(16)   OBJ       -6
    C15(16)   R0        2
    C15(16)   R1        8
    C15(16)   R2        9
    C15(16)   R3        8
    C15(16)   R4        13
    C15(16)   R5        10
    C15(16)   R6        18
    C15(16)   R7        6
    C15(16)   R10       7
    C15(16)   R11       17
    C15(16)   R14       7
    C15(16)   R16       11
    C15(16)   R17       8
    C15(16)   R18       16
    C15(16)   R19       15
    C15(16)   R20       12
    C16(11)   OBJ       -2
    C16(11)   R0        -1
    C16(11)   R1        -9
    C16(11)   R2        9
    C16(11)   R4        18
    C16(11)   R6        19
    C16(11)   R10       13
    C16(11)   R11       3
    C16(11)   R13       18
    C16(11)   R14       19
    C16(11)   R18       6
    C16(11)   R21       17
    C17(12)   OBJ       -2
    C17(12)   R0        6
    C17(12)   R1        -6
    C17(12)   R2        -7
    C17(12)   R4        5
    C17(12)   R8        10
    C17(12)   R9        7
    C17(12)   R11       19
    C17(12)   R13       11
    C17(12)   R14       7
    C17(12)   R16       16
    C17(12)   R19       4
    C17(12)   R21       1
    C18(15)   OBJ       7
    C18(15)   R0        9
    C18(15)   R1        9
    C18(15)   R2        1
    C18(15)   R4        9
    C18(15)   R5        11
    C18(15)   R6        9
    C18(15)   R9        15
    C18(15)   R10       15
    C18(15)   R13       2
    C18(15)   R14       7
    C18(15)   R15       17
    C18(15)   R16       8
    C18(15)   R17       13
    C18(15)   R20       6
    C18(15)   R21       7
    C19(13)   OBJ       -1
    C19(13)   R0        4
    C19(13)   R1        -1
    C19(13)   R2        -8
    C19(13)   R3        17
    C19(13)   R5        10
    C19(13)   R6        12
    C19(13)   R7        17
    C19(13)   R8        8
    C19(13)   R11       2
    C19(13)   R14       15
    C19(13)   R17       18
    C19(13)   R20       9
    C19(13)   R21       17
    C20(1)    R3        1
    C21(1)    R4        1
    C22(1)    R5        1
    C23(1)    R6        1
    C24(1)    R7        1
    C25(1)    R8        1
    C26(1)    R9        1
    C27(1)    R10       1
    C28(1)    R11       1
    C29(1)    R12       1
    C30(1)    R13       1
    C31(1)    R14       1
    C32(1)    R15       1
    C33(1)    R16       1
    C34(1)    R17       1
    C35(1)    R18       1
    C36(1)    R19       1
    C37(1)    R20       1
    C38(1)    R21       1
    C39(1)    R22       1
RHS
    RHS1      R0        -1.8354411764705921e+02
    RHS1      R1        1.9632169117646947e+02
    RHS1      R2        -1.2064338235294255e+02
    RHS1      R3        61
    RHS1      R4        96
    RHS1      R5        99
    RHS1      R6        62
    RHS1      R7        81
    RHS1      R8        85
    RHS1      R9        52
    RHS1      R10       60
    RHS1      R11       93
    RHS1      R12       92
    RHS1      R13       90
    RHS1      R14       87
    RHS1      R15       61
    RHS1      R16       75
    RHS1      R17       94
    RHS1      R18       85
    RHS1      R19       68
    RHS1      R20       92
    RHS1      R21       72
    RHS1      R22       3
BOUNDS
 UP BND1      I0(10)    2
 UP BND1      I1(7)     2
 UP BND1      I2(9)     2
 UP BND1      I3(11)    2
 UP BND1      I4(12)    2
 UP BND1      I5(11)    2
 UP BND1      I6(8)     2
 UP BND1      I7(8)     2
 UP BND1      I8(8)     2
 UP BND1      I9(7)     2
ENDATA
